results/x-long/X-n129-k18.vrp_seed-14.out
28940	1008
