results/x-long/X-n129-k18.vrp_seed-14.vrp.sol
Route #1: 78 119 63 9 124 82
Route #2: 3
Route #3: 90 44 1 23 59 18 64
Route #4: 86 88 113 27 52 20 50
Route #5: 67 30 43 84 25 39 93
Route #6: 38 118 28 127 47
Route #7: 125 31 69 120 51 109 83
Route #8: 121 94 111 4 98 68 80 53
Route #9: 70 117 115 122 106 5 123
Route #10: 62 56 13 57 35 77 60
Route #11: 15 66 89 103 75 91
Route #12: 24 97 8 37 12 16 42 99 14 74
Route #13: 19 48 2 34 21 33 46 22 7
Route #14: 32 114 73 96 95 116 92 49 100
Route #15: 110 17 101 58 40 55 41 61 85 11 126
Route #16: 54 6 45 29 81 128 87
Route #17: 71 65 105 76 79 10 104 108
Route #18: 102 112 72 26 36 107
Cost 28940.000000